1305 3
1360 5
5623
6844 9
6867
7170 10
8677
8974 11
8999
9296 12
9322
10220 15
10256
10553 16
10564
12081 21
44111 3
44166 21
48713
50233 26
50441
53195 35
53275
53876 37
54870
55171 38
55695
55996 39
56946
59374 47
59643
